10 6 15 4 14 18 11 17 8 19 12 0 1 5 7 9 13 2 16 3  
10 6 15 4 18 11 14 7 9 12 0 8 19 5 17 1 2 13 16 3  
10 6 15 4 18 11 14 7 12 0 8 5 9 19 17 1 2 13 16 3  
10 6 15 4 14 18 11 17 8 19 12 0 16 5 7 9 13 2 1 3  
10 6 15 4 14 18 11 17 8 19 12 0 16 5 7 9 13 2 1 3  
10 6 15 4 14 18 11 17 8 19 12 0 1 5 7 9 13 2 16 3  
10 6 15 4 14 18 11 17 8 19 12 0 16 5 7 9 1 2 13 3  
10 6 15 4 14 18 11 17 8 13 12 0 16 5 7 9 1 2 19 3  
10 6 15 4 14 11 5 8 7 17 12 9 18 1 0 19 2 13 16 3  
10 6 15 4 14 18 11 7 17 8 12 9 19 16 5 0 1 13 2 3  
10 6 15 0 11 18 12 17 8 5 4 19 1 7 9 13 2 16 3 14  
10 6 15 4 14 18 11 17 8 19 12 0 16 5 7 9 13 2 1 3  
10 6 15 4 18 14 11 17 12 8 5 9 19 16 0 2 7 3 13 1  
10 6 15 4 14 18 11 7 17 8 12 9 19 16 5 0 13 2 3 1  
10 6 15 4 14 18 11 7 17 8 12 9 19 16 5 0 13 2 3 1  
10 6 15 4 14 18 11 17 8 19 12 0 1 5 7 9 13 16 2 3  
10 6 15 4 11 18 14 7 8 17 12 9 19 16 5 0 2 1 13 3  
10 6 15 4 18 14 11 7 9 12 17 8 19 5 0 1 13 2 16 3  
10 6 15 4 14 18 11 7 8 17 12 9 19 5 13 0 16 1 2 3  
10 6 15 4 14 11 5 17 12 18 0 8 19 1 7 9 13 2 16 3  
10 6 15 4 11 14 5 8 7 9 12 0 18 19 17 1 2 13 16 3  
10 6 15 4 18 14 11 12 17 8 5 9 19 16 7 2 1 0 13 3  
10 6 15 4 18 14 11 7 5 8 0 12 9 19 17 1 2 13 16 3  
10 6 15 4 18 14 11 17 12 8 5 2 7 9 19 1 0 13 16 3  
10 6 15 4 14 18 11 17 8 19 12 0 16 5 7 9 13 2 3 1  
10 6 15 4 11 14 5 8 7 0 12 9 18 19 2 1 17 13 16 3  
10 6 15 4 14 18 11 7 8 17 12 9 19 0 1 5 13 16 2 3  
10 6 15 4 14 18 11 17 8 19 12 0 16 5 7 9 1 2 13 3  
10 6 15 4 18 11 14 7 8 17 12 9 19 16 5 0 3 13 2 1  
10 6 15 4 18 14 11 7 12 0 2 17 1 5 9 13 19 16 3 8  
10 6 15 4 14 18 11 7 17 8 12 9 19 16 5 0 13 2 1 3  
10 6 15 4 11 18 14 7 8 17 12 9 19 5 13 0 1 2 16 3  
10 6 15 4 11 18 14 0 12 7 2 17 1 5 9 13 19 16 3 8  
